


































































































51 16 98 12 76 11 8 
7 94 90 19 92 24 102 55 
59 113 58 34 44 36 91 
88 52 17 15 18 6 81 
22 109 38 112 48 60 111 30 
2 33 42 75 77 31 82 46 
39 50 110 40 101 80 83 
0 43 63 95 13 103 93 89 
29 10 53 37 84 72 
67 106 20 104 1 70 14 
57 32 100 79 97 49 47 
107 23 96 5 26 21 64 54 
56 66 25 4 27 114 68 
108 9 87 65 62 
41 28 35 61 105 74 99 69 71 
85 86 3 78 45 73 
